CPXPARAM_TimeLimit                               3600
CPXPARAM_Read_DataCheck                          1
Tried aggregator 1 time.
MIP Presolve eliminated 2493 rows and 0 columns.
MIP Presolve modified 4159 coefficients.
Reduced MIP has 118087 rows, 54451 columns, and 560756 nonzeros.
Reduced MIP has 2850 binaries, 0 generals, 0 SOSs, and 0 indicators.
Presolve time = 0.09 sec. (156.47 ticks)
Found incumbent of value 12220.000000 after 0.20 sec. (300.62 ticks)
Probing fixed 0 vars, tightened 3 bounds.
Probing time = 0.03 sec. (33.90 ticks)
Tried aggregator 1 time.
Reduced MIP has 118087 rows, 54451 columns, and 560756 nonzeros.
Reduced MIP has 2850 binaries, 0 generals, 0 SOSs, and 0 indicators.
Presolve time = 0.21 sec. (226.08 ticks)
Probing time = 0.03 sec. (24.90 ticks)
MIP emphasis: balance optimality and feasibility.
MIP search method: dynamic search.
Parallel mode: deterministic, using up to 8 threads.
Root relaxation solution time = 1054.62 sec. (302915.37 ticks)

        Nodes                                         Cuts/
   Node  Left     Objective  IInf  Best Integer    Best Bound    ItCnt     Gap

*     0+    0                        12220.0000      956.0000            92.18%
      0     0     1027.5522  2578    12220.0000     1027.5522   320582   91.59%
      0     0     1034.9044  2641    12220.0000    Cuts: 1327   772041   91.53%

Implied bound cuts applied:  532
Flow cuts applied:  555
Mixed integer rounding cuts applied:  951
Gomory fractional cuts applied:  113

Root node processing (before b&c):
  Real time             = 3600.05 sec. (2274936.19 ticks)
Parallel b&c, 8 threads:
  Real time             =    0.00 sec. (0.00 ticks)
  Sync time (average)   =    0.00 sec.
  Wait time (average)   =    0.00 sec.
                          ------------
Total (root+branch&cut) = 3600.05 sec. (2274936.19 ticks)
